db/inputs/2311023148818431802276381649146928688.smt2
(set-logic QF_FP)
(declare-const x0 (_ FloatingPoint 8 24))
(declare-const x1 (_ FloatingPoint 8 24))
(declare-const x2 (_ FloatingPoint 8 24))
(declare-const x3 (_ FloatingPoint 8 24))
(declare-const x4 (_ FloatingPoint 8 24))
(declare-const x5 (_ FloatingPoint 8 24))
(declare-const x6 (_ FloatingPoint 8 24))
(declare-const x7 (_ FloatingPoint 8 24))
(declare-const x8 (_ FloatingPoint 8 24))
(declare-const x9 (_ FloatingPoint 8 24))
(declare-const x10 (_ FloatingPoint 8 24))
(declare-const x11 (_ FloatingPoint 8 24))
(declare-const x12 (_ FloatingPoint 8 24))
(declare-const x13 (_ FloatingPoint 8 24))
(declare-const x14 (_ FloatingPoint 8 24))
(declare-const x15 (_ FloatingPoint 8 24))
(declare-const x16 (_ FloatingPoint 8 24))
(declare-const x17 (_ FloatingPoint 8 24))
(declare-const x18 (_ FloatingPoint 8 24))
(declare-const x19 (_ FloatingPoint 8 24))
(declare-const x20 (_ FloatingPoint 8 24))
(assert (fp.geq (fp.div RNE (fp.add RNE (fp.neg (fp.neg x8)) (fp.sub RNE (fp.add RNE x9 x18) (fp.neg x1))) (fp.sub RNE (fp.mul RNE (fp.mul RNE x18 x4) (fp.div RNE x15 x2)) (fp.div RNE (fp.div RNE x15 x12) (fp.mul RNE x6 x7)))) (fp.div RNE (fp.div RNE (fp.div RNE (fp.neg x12) (fp.neg x2)) (fp.mul RNE (fp.add RNE x2 x5) (fp.mul RNE x0 x12))) (fp.sub RNE (fp.mul RNE (fp.sub RNE x20 x13) (fp.div RNE x14 x7)) (fp.sub RNE (fp.sub RNE x18 x12) (fp.mul RNE x15 x7))))))
(assert (fp.gt (fp.add RNE (fp.mul RNE (fp.add RNE (fp.mul RNE x11 x12) (fp.sub RNE x12 x15)) (fp.sub RNE (fp.neg x2) (fp.neg x16))) (fp.mul RNE (fp.mul RNE (fp.sub RNE x4 x19) (fp.mul RNE x15 x17)) (fp.neg (fp.mul RNE x7 x20)))) (fp.sub RNE (fp.sub RNE (fp.neg (fp.neg x14)) (fp.sub RNE (fp.sub RNE x17 x8) (fp.mul RNE x13 x9))) (fp.neg (fp.div RNE (fp.add RNE x0 x4) (fp.add RNE x20 x17))))))
(assert (fp.geq (fp.div RNE (fp.div RNE (fp.sub RNE (fp.neg x9) (fp.add RNE x10 x19)) (fp.div RNE (fp.add RNE x0 x6) (fp.div RNE x6 x14))) (fp.div RNE (fp.mul RNE (fp.sub RNE x1 x8) (fp.sub RNE x16 x11)) (fp.add RNE (fp.sub RNE x19 x13) (fp.mul RNE x16 x5)))) (fp.neg (fp.neg (fp.mul RNE (fp.neg x4) (fp.sub RNE x13 x12))))))
(assert (fp.eq (fp.sub RNE (fp.div RNE (fp.mul RNE (fp.div RNE x18 x6) (fp.div RNE x9 x6)) (fp.div RNE (fp.div RNE x17 x1) (fp.mul RNE x17 x15))) (fp.mul RNE (fp.add RNE (fp.add RNE x13 x1) (fp.mul RNE x9 x14)) (fp.sub RNE (fp.neg x10) (fp.sub RNE x5 x0)))) (fp.add RNE (fp.neg (fp.mul RNE (fp.add RNE x6 x5) (fp.mul RNE x15 x13))) (fp.sub RNE (fp.sub RNE (fp.add RNE x13 x15) (fp.sub RNE x18 x3)) (fp.div RNE (fp.div RNE x17 x2) (fp.add RNE x20 x3))))))
(assert (fp.eq (fp.mul RNE (fp.add RNE (fp.add RNE (fp.div RNE x15 x12) (fp.add RNE x4 x10)) (fp.div RNE (fp.mul RNE x4 x0) (fp.neg x14))) (fp.add RNE (fp.mul RNE (fp.add RNE x16 x17) (fp.sub RNE x13 x10)) (fp.mul RNE (fp.mul RNE x10 x5) (fp.mul RNE x1 x5)))) (fp.sub RNE (fp.div RNE (fp.div RNE (fp.mul RNE x16 x1) (fp.add RNE x16 x2)) (fp.div RNE (fp.mul RNE x3 x2) (fp.sub RNE x4 x0))) (fp.sub RNE (fp.div RNE (fp.sub RNE x12 x20) (fp.neg x4)) (fp.add RNE (fp.div RNE x4 x17) (fp.sub RNE x12 x0))))))
(assert (fp.geq (fp.div RNE (fp.div RNE (fp.neg (fp.neg x9)) (fp.neg (fp.neg x16))) (fp.sub RNE (fp.sub RNE (fp.neg x16) (fp.div RNE x12 x16)) (fp.mul RNE (fp.div RNE x17 x13) (fp.add RNE x4 x18)))) (fp.mul RNE (fp.add RNE (fp.neg (fp.neg x8)) (fp.add RNE (fp.div RNE x7 x19) (fp.div RNE x14 x4))) (fp.neg (fp.neg (fp.add RNE x1 x5))))))
(assert (fp.eq (fp.neg (fp.div RNE (fp.div RNE (fp.div RNE x0 x10) (fp.add RNE x10 x19)) (fp.neg (fp.div RNE x11 x20)))) (fp.sub RNE (fp.add RNE (fp.sub RNE (fp.add RNE x20 x13) (fp.mul RNE x15 x17)) (fp.neg (fp.mul RNE x13 x4))) (fp.sub RNE (fp.add RNE (fp.add RNE x17 x15) (fp.add RNE x18 x18)) (fp.sub RNE (fp.neg x11) (fp.mul RNE x7 x3))))))
(assert (fp.geq (fp.mul RNE (fp.neg (fp.add RNE (fp.mul RNE x9 x6) (fp.neg x20))) (fp.neg (fp.div RNE (fp.div RNE x10 x16) (fp.div RNE x14 x14)))) (fp.sub RNE (fp.sub RNE (fp.sub RNE (fp.div RNE x8 x11) (fp.sub RNE x3 x3)) (fp.sub RNE (fp.sub RNE x11 x14) (fp.sub RNE x12 x13))) (fp.mul RNE (fp.div RNE (fp.mul RNE x9 x6) (fp.sub RNE x1 x17)) (fp.neg (fp.div RNE x19 x0))))))
(assert (fp.eq (fp.add RNE (fp.neg (fp.div RNE (fp.neg x0) (fp.neg x20))) (fp.sub RNE (fp.sub RNE (fp.div RNE x2 x11) (fp.add RNE x2 x14)) (fp.div RNE (fp.div RNE x6 x20) (fp.div RNE x10 x4)))) (fp.neg (fp.neg (fp.div RNE (fp.sub RNE x11 x14) (fp.div RNE x5 x11))))))
(assert (fp.gt (fp.neg (fp.sub RNE (fp.div RNE (fp.sub RNE x19 x0) (fp.div RNE x4 x3)) (fp.add RNE (fp.mul RNE x11 x9) (fp.div RNE x17 x13)))) (fp.div RNE (fp.add RNE (fp.div RNE (fp.sub RNE x12 x6) (fp.div RNE x2 x1)) (fp.div RNE (fp.neg x16) (fp.sub RNE x2 x9))) (fp.neg (fp.neg (fp.sub RNE x7 x4))))))
(assert (fp.eq (fp.neg (fp.div RNE (fp.div RNE (fp.div RNE x1 x19) (fp.div RNE x12 x0)) (fp.mul RNE (fp.add RNE x1 x13) (fp.div RNE x9 x0)))) (fp.div RNE (fp.neg (fp.neg (fp.neg x7))) (fp.div RNE (fp.add RNE (fp.add RNE x15 x13) (fp.sub RNE x10 x13)) (fp.sub RNE (fp.add RNE x19 x6) (fp.add RNE x15 x18))))))
(assert (fp.geq (fp.div RNE (fp.add RNE (fp.add RNE (fp.sub RNE x12 x9) (fp.div RNE x1 x10)) (fp.div RNE (fp.add RNE x9 x15) (fp.mul RNE x6 x11))) (fp.mul RNE (fp.div RNE (fp.mul RNE x7 x14) (fp.add RNE x7 x9)) (fp.add RNE (fp.sub RNE x10 x1) (fp.sub RNE x8 x11)))) (fp.sub RNE (fp.div RNE (fp.sub RNE (fp.sub RNE x7 x18) (fp.add RNE x14 x13)) (fp.neg (fp.add RNE x2 x1))) (fp.neg (fp.div RNE (fp.neg x8) (fp.neg x12))))))
(assert (fp.geq (fp.add RNE (fp.sub RNE (fp.div RNE (fp.sub RNE x14 x2) (fp.neg x11)) (fp.sub RNE (fp.mul RNE x13 x12) (fp.div RNE x11 x19))) (fp.neg (fp.sub RNE (fp.mul RNE x10 x7) (fp.add RNE x16 x7)))) (fp.neg (fp.add RNE (fp.add RNE (fp.add RNE x17 x1) (fp.neg x5)) (fp.mul RNE (fp.mul RNE x7 x10) (fp.neg x2))))))
(assert (fp.geq (fp.div RNE (fp.mul RNE (fp.div RNE (fp.mul RNE x20 x3) (fp.neg x20)) (fp.mul RNE (fp.neg x0) (fp.div RNE x13 x10))) (fp.neg (fp.add RNE (fp.add RNE x20 x11) (fp.add RNE x18 x15)))) (fp.add RNE (fp.sub RNE (fp.neg (fp.neg x13)) (fp.neg (fp.div RNE x18 x11))) (fp.div RNE (fp.sub RNE (fp.add RNE x8 x7) (fp.div RNE x7 x11)) (fp.mul RNE (fp.div RNE x4 x4) (fp.add RNE x11 x13))))))
(assert (fp.lt (fp.add RNE (fp.sub RNE (fp.mul RNE (fp.sub RNE x3 x20) (fp.div RNE x14 x0)) (fp.sub RNE (fp.neg x17) (fp.add RNE x4 x1))) (fp.neg (fp.neg (fp.div RNE x3 x9)))) (fp.add RNE (fp.neg (fp.sub RNE (fp.mul RNE x4 x13) (fp.div RNE x12 x5))) (fp.mul RNE (fp.add RNE (fp.mul RNE x17 x18) (fp.sub RNE x15 x14)) (fp.neg (fp.sub RNE x1 x11))))))
(assert (fp.lt (fp.div RNE (fp.sub RNE (fp.div RNE (fp.add RNE x0 x1) (fp.add RNE x16 x16)) (fp.div RNE (fp.div RNE x20 x13) (fp.add RNE x2 x14))) (fp.div RNE (fp.sub RNE (fp.div RNE x10 x7) (fp.div RNE x20 x16)) (fp.mul RNE (fp.mul RNE x3 x14) (fp.neg x11)))) (fp.sub RNE (fp.add RNE (fp.neg (fp.div RNE x3 x10)) (fp.add RNE (fp.sub RNE x9 x2) (fp.mul RNE x13 x0))) (fp.add RNE (fp.neg (fp.add RNE x17 x8)) (fp.div RNE (fp.sub RNE x0 x16) (fp.div RNE x16 x14))))))
(assert (fp.geq (fp.add RNE (fp.add RNE (fp.neg (fp.neg x8)) (fp.neg (fp.add RNE x11 x5))) (fp.div RNE (fp.mul RNE (fp.sub RNE x15 x18) (fp.sub RNE x9 x6)) (fp.sub RNE (fp.neg x3) (fp.neg x17)))) (fp.add RNE (fp.mul RNE (fp.add RNE (fp.add RNE x7 x9) (fp.div RNE x2 x13)) (fp.sub RNE (fp.mul RNE x20 x6) (fp.sub RNE x6 x12))) (fp.sub RNE (fp.mul RNE (fp.mul RNE x11 x3) (fp.div RNE x12 x20)) (fp.add RNE (fp.sub RNE x7 x16) (fp.sub RNE x9 x13))))))
(assert (fp.geq (fp.sub RNE (fp.sub RNE (fp.sub RNE (fp.neg x3) (fp.add RNE x16 x18)) (fp.sub RNE (fp.mul RNE x7 x8) (fp.neg x1))) (fp.div RNE (fp.mul RNE (fp.mul RNE x19 x13) (fp.mul RNE x1 x17)) (fp.neg (fp.mul RNE x20 x14)))) (fp.add RNE (fp.neg (fp.neg (fp.div RNE x20 x12))) (fp.mul RNE (fp.mul RNE (fp.mul RNE x20 x10) (fp.sub RNE x13 x4)) (fp.sub RNE (fp.sub RNE x5 x8) (fp.mul RNE x16 x0))))))
(check-sat)
