db/data/2311023148818431802276381649146928688.z3.out
-------------------
2500.173204662
